%nproc=12
%mem=12GB
%chk=00000231.chk
#p opt freq b3lyp/6-31g*

BrCc1ccccc1

0 2
C -0.1372 -1.7470 0.7794
C -0.8142 -0.6919 -0.0428
C -1.0817 -0.9093 -1.4023
C -1.7048 0.0769 -2.1689
C -2.0629 1.2912 -1.5870
C -1.7955 1.5224 -0.2392
C -1.1725 0.5376 0.5293
H -0.4238 -1.6899 1.8336
H -0.3570 -2.7541 0.4130
H -0.8012 -1.8484 -1.8749
H -1.9069 -0.1010 -3.2220
H -2.5453 2.0596 -2.1853
H -2.0684 2.4723 0.2132
H -0.9635 0.7381 1.5780


