%nproc=12
%mem=12GB
%chk=00000298.chk
#p opt freq b3lyp/6-31g*

Cc1cc(C)c(C)c(C)c1

0 1
C -2.9622 0.0946 -0.8623
C -1.4677 -0.0038 -0.9384
C -0.7300 -0.4549 0.1582
C 0.6725 -0.5240 0.1139
C 1.4045 -1.0233 1.3315
C 1.3555 -0.1476 -1.0658
C 2.8617 -0.2167 -1.1309
C 0.6148 0.3573 -2.1595
C 1.2836 0.8213 -3.4265
C -0.7869 0.4143 -2.0838
H -3.4140 -0.0441 -1.8502
H -3.2534 1.0757 -0.4745
H -3.3722 -0.6811 -0.2070
H -1.2550 -0.7559 1.0632
H 0.7384 -1.1001 2.1978
H 1.8212 -2.0171 1.1401
H 2.2084 -0.3333 1.6074
H 3.2560 -1.0378 -0.5246
H 3.2923 0.7249 -0.7767
H 3.2148 -0.4081 -2.1487
H 1.6913 -0.0347 -3.9732
H 0.5788 1.3368 -4.0878
H 2.0863 1.5307 -3.2006
H -1.3564 0.7926 -2.9310


