%nproc=12
%mem=12GB
%chk=00000215.chk
#p opt freq b3lyp/6-31g*

N#CCCC#N

0 1
N -1.7274 0.1260 0.9907
C -2.0427 0.7191 0.0456
C -2.4667 1.4552 -1.1520
C -2.3341 0.6029 -2.4079
C -0.9294 0.4445 -2.8053
N 0.1797 0.3408 -3.1270
H -1.8893 2.3825 -1.2465
H -3.5174 1.7444 -1.0302
H -2.7962 -0.3808 -2.2630
H -2.8753 1.0924 -3.2263


