%nproc=12
%mem=12GB
%chk=00000038.chk
#p opt freq b3lyp/6-31g*

CCCCOC(C)=O

0 1
C 1.1736 0.6219 -1.7346
C 0.2998 1.8543 -1.5661
C -0.0566 2.1854 -0.1127
C -0.9423 1.1452 0.5699
O -0.1527 0.0042 0.9258
C -0.8577 -1.0066 1.5029
C 0.0567 -2.1489 1.8235
O -2.0588 -0.9963 1.7314
H 2.0622 0.6767 -1.0981
H 1.5068 0.5390 -2.7743
H 0.6259 -0.2937 -1.4947
H 0.8326 2.7142 -1.9902
H -0.6170 1.7323 -2.1548
H 0.8674 2.3224 0.4619
H -0.5890 3.1442 -0.1114
H -1.3576 1.5795 1.4870
H -1.7641 0.8477 -0.0920
H -0.5208 -2.9588 2.2784
H 0.8209 -1.8238 2.5339
H 0.5178 -2.5231 0.9060


