%nproc=12
%mem=12GB
%chk=00000313.chk
#p opt freq b3lyp/6-31g*

OCCCCCCCCCO

0 1
O -3.5187 -0.8900 -1.2229
C -3.4918 -0.6445 0.1751
C -2.5452 -1.6030 0.8858
C -1.0696 -1.5097 0.4774
C -0.3887 -0.1845 0.8431
C -0.3077 0.7942 -0.3331
C 0.3622 2.1253 0.0321
C 1.8450 2.2204 -0.3452
C 2.7934 1.2792 0.3932
C 2.8560 1.5300 1.8938
O 3.8015 0.6355 2.4656
H -2.6429 -0.6731 -1.5828
H -4.5091 -0.7936 0.5514
H -3.2313 0.4021 0.3546
H -2.8762 -2.6291 0.6811
H -2.6302 -1.4512 1.9685
H -0.9459 -1.7353 -0.5878
H -0.5448 -2.3102 1.0157
H 0.6269 -0.4168 1.1783
H -0.8953 0.2844 1.6948
H 0.2064 0.3272 -1.1814
H -1.3232 1.0184 -0.6746
H -0.1531 2.9165 -0.5289
H 0.2113 2.3653 1.0903
H 1.9471 2.0412 -1.4230
H 2.1761 3.2533 -0.1775
H 3.8027 1.4036 -0.0212
H 2.5378 0.2327 0.1941
H 3.1768 2.5554 2.1035
H 1.8893 1.3552 2.3735
H 3.8380 0.8286 3.4180


