%nproc=12
%mem=12GB
%chk=00000119.chk
#p opt freq b3lyp/6-31g*

FC(Cl)C(F)(F)F

0 2
F -2.2072 1.3881 -0.4746
C -1.1770 0.6526 -0.9815
C 0.0730 0.8135 -0.1249
F 0.4651 2.1112 -0.0794
F 1.1163 0.1131 -0.6344
F -0.1095 0.4019 1.1499
H -0.9868 1.0083 -1.9978


