%nproc=12
%mem=12GB
%chk=00000256.chk
#p opt freq b3lyp/6-31g*

CC1=C(C)CCC1

0 1
C -1.9849 0.1530 0.1183
C -1.1930 -0.6960 1.0511
C -0.7962 -1.9712 0.9119
C -1.0304 -2.9144 -0.2166
C -0.0445 -2.4454 2.1206
C 0.2552 -1.1510 2.8703
C -0.7647 -0.1311 2.3733
H -1.4103 1.0412 -0.1634
H -2.9115 0.4807 0.6004
H -2.2568 -0.3711 -0.8012
H -0.0749 -3.2503 -0.6321
H -1.5817 -3.7929 0.1337
H -1.6053 -2.4646 -1.0298
H -0.6700 -3.1173 2.7181
H 0.8822 -2.9637 1.8556
H 1.2695 -0.8087 2.6261
H 0.2124 -1.2829 3.9562
H -0.3069 0.8579 2.2729
H -1.6214 -0.0597 3.0520


