%nproc=12
%mem=12GB
%chk=00000018.chk
#p opt freq b3lyp/6-31g*

Cc1ccccc1

0 1
C 0.0295 -1.7258 0.6001
C 0.1507 -0.3774 -0.0453
C 1.0677 0.5623 0.4416
C 1.2027 1.8057 -0.1786
C 0.4302 2.1159 -1.2963
C -0.4745 1.1817 -1.7971
C -0.6104 -0.0620 -1.1777
H 0.7339 -2.4255 0.1399
H -0.9856 -2.1216 0.4904
H 0.2399 -1.6656 1.6731
H 1.6824 0.3313 1.3086
H 1.9130 2.5309 0.2092
H 0.5363 3.0835 -1.7792
H -1.0729 1.4201 -2.6723
H -1.3151 -0.7838 -1.5841


