%nproc=12
%mem=12GB
%chk=00000328.chk
#p opt freq b3lyp/6-31g*

c1ccc(CCc2ccccc2)cc1

0 1
C -2.5619 -2.9348 -2.3909
C -2.1437 -1.6376 -2.6810
C -0.8852 -1.1995 -2.2666
C -0.0323 -2.0561 -1.5579
C 1.3225 -1.5768 -1.0919
C 1.3361 -1.1004 0.3661
C 0.6620 0.2359 0.5709
C -0.6708 0.3027 0.9981
C -1.2981 1.5374 1.1698
C -0.6001 2.7164 0.9159
C 0.7249 2.6618 0.4875
C 1.3534 1.4277 0.3137
C -0.4646 -3.3572 -1.2671
C -1.7231 -3.7942 -1.6838
H -3.5420 -3.2748 -2.7140
H -2.7984 -0.9637 -3.2270
H -0.5771 -0.1798 -2.4889
H 2.0321 -2.4078 -1.1989
H 1.6884 -0.7887 -1.7625
H 2.3785 -1.0096 0.6986
H 0.8810 -1.8508 1.0252
H -1.2322 -0.6100 1.1876
H -2.3332 1.5774 1.4982
H -1.0895 3.6772 1.0499
H 1.2692 3.5809 0.2877
H 2.3868 1.4012 -0.0239
H 0.1775 -4.0385 -0.7138
H -2.0494 -4.8054 -1.4558


