%nproc=12
%mem=12GB
%chk=00000267.chk
#p opt freq b3lyp/6-31g*

C=CC1CCCC1

0 1
C -1.7737 0.1182 1.6280
C -0.4809 0.4425 1.7597
C 0.5212 0.6300 0.6538
C 0.0108 0.5728 -0.7875
C 1.1694 1.1487 -1.5907
C 1.8123 2.1959 -0.6832
C 1.1884 2.0076 0.6997
H -2.2390 -0.0439 0.6617
H -2.4045 0.0020 2.5045
H -0.0919 0.5740 2.7692
H 1.2971 -0.1382 0.7795
H -0.2381 -0.4447 -1.1052
H -0.8776 1.2020 -0.9235
H 0.8374 1.5747 -2.5424
H 1.8971 0.3601 -1.8166
H 2.8979 2.0526 -0.6480
H 1.6281 3.2104 -1.0526
H 0.4476 2.7976 0.8781
H 1.9399 2.0765 1.4935


