%nproc=12
%mem=12GB
%chk=00000177.chk
#p opt freq b3lyp/6-31g*

C1CCOCC1

0 1
C -1.0787 -1.0192 0.0902
C -0.5989 -2.4598 0.1686
C 0.9270 -2.5352 0.1060
O 1.5267 -1.4372 -0.5855
C 0.7392 -0.9805 -1.6792
C -0.5451 -0.3350 -1.1679
H -0.7256 -0.4759 0.9757
H -2.1731 -0.9733 0.1081
H -1.0203 -3.0191 -0.6766
H -0.9645 -2.9522 1.0762
H 1.3418 -2.5338 1.1195
H 1.2438 -3.4697 -0.3702
H 0.5247 -1.8202 -2.3515
H 1.3247 -0.2510 -2.2480
H -1.2970 -0.3478 -1.9653
H -0.3614 0.7207 -0.9341


