%nproc=12
%mem=12GB
%chk=00000301.chk
#p opt freq b3lyp/6-31g*

Cc1cccnc1

0 2
C 2.2012 2.1829 0.5329
C 0.9455 1.7288 -0.1396
C 0.9084 0.5557 -0.8954
C -0.2883 0.1486 -1.4780
C -1.4154 0.9271 -1.2748
N -1.4229 2.0589 -0.5395
C -0.2462 2.4299 0.0140
H 2.2675 1.7503 1.5359
H 2.2274 3.2745 0.6161
H 3.0832 1.8800 -0.0411
H 1.8051 -0.0427 -1.0338
H -0.3413 -0.7555 -2.0737
H -2.3720 0.6510 -1.7088
H -0.2924 3.3402 0.6061


