%nproc=12
%mem=12GB
%chk=00000059.chk
#p opt freq b3lyp/6-31g*

CCN(CC)CC

0 2
C -1.0873 1.0984 0.8788
C -0.0106 0.0626 1.1914
N 0.7456 -0.3856 0.0108
C -0.0919 -0.9643 -1.0542
C -0.9000 -2.2046 -0.6828
C 1.8466 -1.2941 0.3753
C 2.9919 -0.5816 1.0884
H -1.9180 0.6670 0.3124
H -0.6743 1.9386 0.3108
H -1.5013 1.4969 1.8112
H 0.6734 0.5427 1.8997
H -0.4626 -0.7847 1.7208
H -0.7738 -0.1983 -1.4414
H 0.5483 -1.2105 -1.9116
H -0.2555 -3.0249 -0.3529
H -1.4575 -2.5566 -1.5574
H -1.6281 -1.9947 0.1061
H 2.2740 -1.7337 -0.5350
H 1.4900 -2.1270 0.9935
H 2.7078 -0.2451 2.0895
H 3.3364 0.2849 0.5141
H 3.8401 -1.2649 1.2029


