%nproc=12
%mem=12GB
%chk=00000364.chk
#p opt freq b3lyp/6-31g*

c1ccc(COCc2ccccc2)cc1

0 1
C 1.3068 4.0872 2.3080
C 2.1738 3.9635 1.2236
C 1.8478 3.1213 0.1587
C 0.6530 2.3885 0.1730
C 0.2893 1.4927 -0.9864
O -0.2415 0.2429 -0.5484
C 0.7758 -0.6698 -0.1462
C 0.1131 -1.8895 0.4365
C -0.1550 -3.0101 -0.3613
C -0.7794 -4.1336 0.1838
C -1.1494 -4.1440 1.5277
C -0.9016 -3.0293 2.3266
C -0.2774 -1.9054 1.7832
C -0.2163 2.5305 1.2647
C 0.1112 3.3721 2.3283
H 1.5612 4.7438 3.1359
H 3.1038 4.5258 1.2064
H 2.5341 3.0418 -0.6812
H -0.4891 1.9939 -1.5727
H 1.1415 1.3239 -1.6557
H 1.3885 -0.9460 -1.0127
H 1.4382 -0.2202 0.6032
H 0.1158 -3.0101 -1.4144
H -0.9830 -4.9982 -0.4422
H -1.6388 -5.0174 1.9501
H -1.1997 -3.0318 3.3716
H -0.1009 -1.0350 2.4116
H -1.1532 1.9762 1.2879
H -0.5683 3.4702 3.1707


