%nproc=12
%mem=12GB
%chk=00000109.chk
#p opt freq b3lyp/6-31g*

CC(Cl)Cl

0 1
C -0.1293 -0.0960 -0.7265
C -0.3012 -1.5318 -1.1881
H 0.6178 -0.0299 0.0721
H -1.0699 0.3014 -0.3296
H 0.1938 0.5582 -1.5441
H -0.6234 -2.1669 -0.3582


