%nproc=12
%mem=12GB
%chk=00000227.chk
#p opt freq b3lyp/6-31g*

C=CC#N

0 2
C -1.5129 1.1287 -0.4326
C -1.4719 -0.1622 -0.0800
C -2.5005 -1.0808 -0.4248
N -3.3372 -1.8337 -0.7038
H -0.7112 1.8055 -0.1539
H -2.3404 1.5412 -1.0039
H -0.6343 -0.5484 0.4902


