%nproc=12
%mem=12GB
%chk=00000049.chk
#p opt freq b3lyp/6-31g*

CCC(C)OC(C)CC

0 1
C 1.7419 -0.1962 -2.5149
C 0.9055 0.5118 -1.4612
C 0.3678 -0.4253 -0.3697
C 1.4864 -1.0376 0.4676
O -0.4475 0.3324 0.5341
C -1.8197 0.4445 0.1437
C -2.5910 -0.7623 0.6732
C -2.3824 1.7372 0.7478
C -1.6894 2.9774 0.1981
H 2.6692 -0.5936 -2.0923
H 1.1847 -1.0215 -2.9690
H 2.0157 0.5050 -3.3099
H 1.4930 1.3173 -1.0030
H 0.0675 1.0128 -1.9600
H -0.2153 -1.2378 -0.8190
H 1.0649 -1.6174 1.2965
H 2.1215 -1.7027 -0.1239
H 2.1126 -0.2588 0.9169
H -1.9120 0.4891 -0.9481
H -3.6561 -0.6881 0.4331
H -2.2082 -1.6936 0.2441
H -2.4807 -0.8501 1.7598
H -3.4565 1.8094 0.5409
H -2.2539 1.7281 1.8371
H -0.6230 2.9810 0.4441
H -2.1362 3.8799 0.6271
H -1.7918 3.0325 -0.8904


