%nproc=12
%mem=12GB
%chk=00000342.chk
#p opt freq b3lyp/6-31g*

O=C(C(=O)c1ccccc1)c1ccccc1

0 1
O -1.9500 -1.2096 -0.0823
C -1.0760 -0.6629 -0.7493
C 0.0034 0.1613 -0.0369
O 0.8773 0.7081 -0.7039
C 0.0527 0.3400 1.4516
C 1.1025 1.1242 1.9679
C 1.2330 1.3486 3.3411
C 0.3148 0.7921 4.2243
C -0.7297 0.0139 3.7331
C -0.8612 -0.2114 2.3567
C -1.1252 -0.8418 -2.2378
C -2.1750 -1.6260 -2.7540
C -2.3054 -1.8505 -4.1273
C -1.3871 -1.2942 -5.0104
C -0.3425 -0.5161 -4.5193
C -0.2111 -0.2907 -3.1429
H 1.8360 1.5724 1.2988
H 2.0518 1.9576 3.7162
H 0.4117 0.9635 5.2933
H -1.4500 -0.4231 4.4214
H -1.6966 -0.8263 2.0412
H -2.9086 -2.0741 -2.0850
H -3.1242 -2.4595 -4.5024
H -1.4839 -1.4657 -6.0795
H 0.3779 -0.0793 -5.2075
H 0.6244 0.3241 -2.8273


