%nproc=12
%mem=12GB
%chk=00000010.chk
#p opt freq b3lyp/6-31g*

CC=C=CC

0 1
C -2.7502 -1.1417 0.2431
C -2.6930 0.3009 0.6195
C -1.6019 0.9597 0.8784
C -0.5097 1.6170 1.1366
C 0.8562 1.2098 0.6953
H -3.3533 -1.6941 0.9699
H -3.2127 -1.2528 -0.7424
H -1.7541 -1.5946 0.2080
H -3.6403 0.8292 0.6767
H -0.5833 2.5318 1.7174
H 0.8388 0.2793 0.1187
H 1.2961 1.9929 0.0704
H 1.5019 1.0620 1.5662


